




































































































46 74 66 73 75 
62 55 33 71 42 34 
53 40 60 69 51 52 
18 27 54 68 50 24 
36 29 0 23 70 48 
14 4 65 1 64 
72 10 22 76 39 
45 28 67 56 59 
12 44 61 35 8 49 
58 16 41 25 2 
17 26 63 30 32 37 
20 5 57 7 6 31 
47 19 38 21 9 43 11 
3 13 15 
